tsp_instances/TSP20/instance5.tsp
NODE_COORD_SECTION
0 2 155
1 88 25
2 15 129
3 163 124
4 55 190
5 180 123
6 167 148
7 144 163
8 95 141
9 167 32
10 114 61
11 33 118
12 65 27
13 45 25
14 196 145
15 74 61
16 6 24
17 188 32
18 185 162
19 200 73
