tsp_instances/TSP20/instance5.opt.tour
TOUR_SECTION
1
3
12
17
14
13
2
16
11
10
18
20
4
6
15
19
7
8
9
5
-1